NAME          ClpDefau
ROWS
 N  OBJROW
 L  R_232_0
 L  R_232_1
 L  R_232_2
 L  R_232_3
 L  R_232_4
 L  R_232_5
 L  R_232_6
 L  R_232_7
 L  R_232_8
 L  R_232_9
 L  R_232_10
 L  R_232_11
 L  R_232_12
 L  R_232_13
 L  R_232_14
 L  R_232_15
COLUMNS
    x_0       OBJROW     -1.           R_232_0   4.          
    x_0       R_232_1   23.            R_232_2   66.         
    x_0       R_232_3   66.            R_232_4   24.         
    x_0       R_232_6   54.            R_232_7   98.         
    x_0       R_232_8   76.            R_232_9   58.         
    x_0       R_232_10  97.            R_232_11  95.         
    x_0       R_232_12  68.            R_232_13  36.         
    x_0       R_232_15  46.         
    x_1       OBJROW     -2.           R_232_0   59.         
    x_1       R_232_2   73.            R_232_3   72.         
    x_1       R_232_4   63.            R_232_5   42.         
    x_1       R_232_9   99.            R_232_11  91.         
    x_1       R_232_13  65.            R_232_14  76.         
    x_1       R_232_15  94.         
    x_2       OBJROW     -2.           R_232_0   66.         
    x_2       R_232_1   88.            R_232_2   10.         
    x_2       R_232_3   44.            R_232_4   25.         
    x_2       R_232_6   74.            R_232_7   35.         
    x_2       R_232_8   88.            R_232_10  67.         
    x_2       R_232_11  35.            R_232_12  27.         
    x_2       R_232_14  92.            R_232_15  8.          
    x_3       OBJROW     -6.           R_232_0   23.         
    x_3       R_232_1   4.             R_232_2   9.          
    x_3       R_232_3   94.            R_232_5   17.         
    x_3       R_232_7   24.            R_232_8   1.          
    x_3       R_232_9   6.             R_232_10  32.         
    x_3       R_232_11  5.             R_232_12  79.         
    x_3       R_232_13  96.            R_232_14  44.         
    x_3       R_232_15  40.         
    x_4       OBJROW     -3.           R_232_0   99.         
    x_4       R_232_1   6.             R_232_3   80.         
    x_4       R_232_4   61.            R_232_6   88.         
    x_4       R_232_7   14.            R_232_8   17.         
    x_4       R_232_9   100.           R_232_10  66.         
    x_4       R_232_11  44.            R_232_12  78.         
    x_4       R_232_14  90.            R_232_15  18.         
    x_5       OBJROW     -5.           R_232_0   33.         
    x_5       R_232_1   21.            R_232_2   59.         
    x_5       R_232_3   66.            R_232_5   5.          
    x_5       R_232_7   57.            R_232_8   11.         
    x_5       R_232_9   80.            R_232_10  80.         
    x_5       R_232_11  33.            R_232_12  36.         
    x_5       R_232_13  1.             R_232_14  50.         
    x_5       R_232_15  15.         
    x_6       OBJROW     -5.           R_232_0   12.         
    x_6       R_232_1   13.            R_232_2   97.         
    x_6       R_232_3   28.            R_232_4   86.         
    x_6       R_232_5   40.            R_232_6   49.         
    x_6       R_232_7   98.            R_232_9   56.         
    x_6       R_232_10  3.             R_232_11  7.          
    x_6       R_232_14  13.            R_232_15  62.         
    x_7       OBJROW     -10.          R_232_0   67.         
    x_7       R_232_2   47.            R_232_3   48.         
    x_7       R_232_4   88.            R_232_5   14.         
    x_7       R_232_6   100.           R_232_7   3.          
    x_7       R_232_9   82.            R_232_10  27.         
    x_7       R_232_12  1.             R_232_13  48.         
    x_7       R_232_14  93.            R_232_15  97.         
    x_8       OBJROW     -4.           R_232_0   15.         
    x_8       R_232_1   51.            R_232_2   18.         
    x_8       R_232_3   51.            R_232_5   16.         
    x_8       R_232_6   43.            R_232_7   28.         
    x_8       R_232_8   4.             R_232_9   61.         
    x_8       R_232_10  93.            R_232_11  38.         
    x_8       R_232_12  59.            R_232_13  48.         
    x_8       R_232_14  68.         
    x_9       OBJROW     -10.          R_232_0   94.         
    x_9       R_232_4   30.            R_232_5   77.         
    x_9       R_232_6   55.            R_232_7   90.         
    x_9       R_232_9   74.            R_232_10  46.         
    x_9       R_232_11  70.            R_232_12  54.         
    x_9       R_232_14  88.         
    x_10      OBJROW     -1.           R_232_0   17.         
    x_10      R_232_2   91.            R_232_3   88.         
    x_10      R_232_4   23.            R_232_5   15.         
    x_10      R_232_6   97.            R_232_7   43.         
    x_10      R_232_8   92.            R_232_9   22.         
    x_10      R_232_11  91.            R_232_12  46.         
    x_10      R_232_13  74.            R_232_14  60.         
    x_10      R_232_15  4.          
    x_11      OBJROW     -10.          R_232_1   95.         
    x_11      R_232_2   66.            R_232_3   36.         
    x_11      R_232_4   91.            R_232_5   53.         
    x_11      R_232_6   61.            R_232_7   71.         
    x_11      R_232_8   96.            R_232_10  93.         
    x_11      R_232_11  80.            R_232_12  86.         
    x_11      R_232_13  82.            R_232_15  68.         
    x_12      OBJROW     -3.           R_232_0   60.         
    x_12      R_232_1   13.            R_232_2   28.         
    x_12      R_232_3   78.            R_232_4   28.         
    x_12      R_232_6   72.            R_232_7   26.         
    x_12      R_232_8   76.            R_232_9   63.         
    x_12      R_232_11  79.            R_232_12  62.         
    x_12      R_232_13  73.            R_232_14  92.         
    x_12      R_232_15  98.         
    x_13      OBJROW     -7.           R_232_0   1.          
    x_13      R_232_2   86.            R_232_3   97.         
    x_13      R_232_4   87.            R_232_6   65.         
    x_13      R_232_7   11.            R_232_8   45.         
    x_13      R_232_9   97.            R_232_12  81.         
    x_13      R_232_13  93.            R_232_14  21.         
    x_13      R_232_15  60.         
    x_14      OBJROW     -7.           R_232_0   20.         
    x_14      R_232_1   72.            R_232_2   1.          
    x_14      R_232_3   69.            R_232_5   27.         
    x_14      R_232_7   84.            R_232_8   89.         
    x_14      R_232_9   39.            R_232_10  41.         
    x_14      R_232_11  83.            R_232_13  83.         
    x_14      R_232_14  12.            R_232_15  27.         
    x_15      OBJROW     -9.           R_232_0   68.         
    x_15      R_232_2   65.            R_232_3   40.         
    x_15      R_232_4   59.            R_232_5   67.         
    x_15      R_232_6   15.            R_232_7   49.         
    x_15      R_232_9   46.            R_232_10  59.         
    x_15      R_232_11  64.            R_232_12  38.         
    x_15      R_232_13  18.            R_232_15  82.         
    x_16      OBJROW     -6.           R_232_0   35.         
    x_16      R_232_1   13.            R_232_3   97.         
    x_16      R_232_4   48.            R_232_5   18.         
    x_16      R_232_6   30.            R_232_7   71.         
    x_16      R_232_8   52.            R_232_10  36.         
    x_16      R_232_13  89.            R_232_14  42.         
    x_16      R_232_15  97.         
    x_17      OBJROW     -9.           R_232_0   91.         
    x_17      R_232_2   92.            R_232_3   80.         
    x_17      R_232_4   10.            R_232_5   51.         
    x_17      R_232_6   34.            R_232_8   62.         
    x_17      R_232_9   24.            R_232_10  49.         
    x_17      R_232_11  4.             R_232_12  22.         
    x_17      R_232_13  94.            R_232_14  56.         
    x_17      R_232_15  42.         
    x_18      OBJROW     -8.           R_232_0   77.         
    x_18      R_232_1   37.            R_232_2   20.         
    x_18      R_232_3   26.            R_232_5   19.         
    x_18      R_232_6   43.            R_232_7   54.         
    x_18      R_232_8   12.            R_232_9   32.         
    x_18      R_232_10  94.            R_232_11  44.         
    x_18      R_232_13  79.            R_232_14  19.         
    x_18      R_232_15  9.          
    x_19      OBJROW     -9.           R_232_0   100.        
    x_19      R_232_1   42.            R_232_2   15.         
    x_19      R_232_3   99.            R_232_4   51.         
    x_19      R_232_5   7.             R_232_6   61.         
    x_19      R_232_7   41.            R_232_8   80.         
    x_19      R_232_9   76.            R_232_10  86.         
    x_19      R_232_14  53.            R_232_15  58.         
    x_20      OBJROW     -5.           R_232_0   14.         
    x_20      R_232_1   76.            R_232_2   88.         
    x_20      R_232_3   23.            R_232_4   40.         
    x_20      R_232_5   91.            R_232_6   14.         
    x_20      R_232_7   29.            R_232_8   19.         
    x_20      R_232_9   12.            R_232_10  84.         
    x_20      R_232_11  61.            R_232_12  62.         
    x_20      R_232_13  4.             R_232_14  65.         
    x_20      R_232_15  7.          
    x_21      OBJROW     -1.           R_232_0   1.          
    x_21      R_232_2   88.            R_232_3   31.         
    x_21      R_232_4   63.            R_232_5   70.         
    x_21      R_232_6   14.            R_232_7   7.          
    x_21      R_232_8   81.            R_232_9   80.         
    x_21      R_232_10  51.            R_232_12  65.         
    x_21      R_232_13  87.            R_232_14  14.         
    x_22      OBJROW     -1.           R_232_0   27.         
    x_22      R_232_1   26.            R_232_2   56.         
    x_22      R_232_3   17.            R_232_4   39.         
    x_22      R_232_6   61.            R_232_7   68.         
    x_22      R_232_8   36.            R_232_9   90.         
    x_22      R_232_10  71.            R_232_11  4.          
    x_22      R_232_12  97.            R_232_13  25.         
    x_22      R_232_14  6.             R_232_15  81.         
    x_23      OBJROW     -6.           R_232_0   34.         
    x_23      R_232_1   61.            R_232_2   95.         
    x_23      R_232_3   29.            R_232_5   5.          
    x_23      R_232_6   14.            R_232_7   89.         
    x_23      R_232_8   24.            R_232_9   12.         
    x_23      R_232_12  38.            R_232_14  42.         
    x_23      R_232_15  36.         
    x_24      OBJROW     -8.           R_232_1   9.          
    x_24      R_232_2   54.            R_232_3   5.          
    x_24      R_232_4   85.            R_232_6   94.         
    x_24      R_232_7   3.             R_232_8   43.         
    x_24      R_232_9   94.            R_232_10  68.         
    x_24      R_232_11  26.            R_232_12  17.         
    x_24      R_232_13  58.         
    x_25      OBJROW     -6.           R_232_0   79.         
    x_25      R_232_1   25.            R_232_2   57.         
    x_25      R_232_3   61.            R_232_5   10.         
    x_25      R_232_6   78.            R_232_7   61.         
    x_25      R_232_8   79.            R_232_9   74.         
    x_25      R_232_11  40.            R_232_13  39.         
    x_25      R_232_14  4.             R_232_15  41.         
    x_26      OBJROW     -7.           R_232_0   69.         
    x_26      R_232_1   93.            R_232_2   57.         
    x_26      R_232_3   61.            R_232_5   75.         
    x_26      R_232_6   28.            R_232_7   78.         
    x_26      R_232_8   93.            R_232_9   76.         
    x_26      R_232_10  36.            R_232_11  64.         
    x_26      R_232_12  31.            R_232_13  39.         
    x_27      OBJROW     -7.           R_232_0   80.         
    x_27      R_232_1   43.            R_232_2   90.         
    x_27      R_232_3   53.            R_232_4   28.         
    x_27      R_232_5   34.            R_232_6   18.         
    x_27      R_232_8   56.            R_232_9   59.         
    x_27      R_232_10  61.            R_232_12  31.         
    x_27      R_232_13  69.            R_232_14  12.         
    x_27      R_232_15  70.         
    x_28      OBJROW     -9.           R_232_0   7.          
    x_28      R_232_1   56.            R_232_2   66.         
    x_28      R_232_3   47.            R_232_4   67.         
    x_28      R_232_6   9.             R_232_7   95.         
    x_28      R_232_8   36.            R_232_9   62.         
    x_28      R_232_10  84.            R_232_11  42.         
    x_28      R_232_12  7.             R_232_13  83.         
    x_28      R_232_14  98.            R_232_15  72.         
    x_29      OBJROW     -3.           R_232_0   87.         
    x_29      R_232_1   56.            R_232_2   5.          
    x_29      R_232_3   85.            R_232_4   7.          
    x_29      R_232_6   44.            R_232_7   13.         
    x_29      R_232_8   14.            R_232_9   45.         
    x_29      R_232_10  82.            R_232_11  62.         
    x_29      R_232_13  20.            R_232_14  44.         
    x_29      R_232_15  82.         
    x_30      OBJROW     -9.           R_232_0   87.         
    x_30      R_232_2   7.             R_232_4   70.         
    x_30      R_232_5   99.            R_232_6   54.         
    x_30      R_232_7   24.            R_232_8   6.          
    x_30      R_232_9   98.            R_232_12  38.         
    x_30      R_232_13  6.             R_232_15  29.         
    x_31      OBJROW     -3.           R_232_0   47.         
    x_31      R_232_1   77.            R_232_3   71.         
    x_31      R_232_4   1.             R_232_5   11.         
    x_31      R_232_6   36.            R_232_7   29.         
    x_31      R_232_8   67.            R_232_11  17.         
    x_31      R_232_12  17.            R_232_13  48.         
    x_31      R_232_14  74.            R_232_15  57.         
RHS
    RHS       R_232_0   1215.          R_232_1   1547.       
    RHS       R_232_2   1646.          R_232_3   1233.       
    RHS       R_232_4   652.           R_232_5   1334.       
    RHS       R_232_6   1537.          R_232_7   581.        
    RHS       R_232_8   1038.          R_232_9   618.        
    RHS       R_232_10  367.           R_232_11  834.        
    RHS       R_232_12  703.           R_232_13  629.        
    RHS       R_232_14  1626.          R_232_15  1164.       
BOUNDS
 UI BOUND     x_0       10.         
 UI BOUND     x_1       10.         
 UI BOUND     x_2       10.         
 UI BOUND     x_3       10.         
 UI BOUND     x_4       10.         
 UI BOUND     x_5       10.         
 UI BOUND     x_6       10.         
 UI BOUND     x_7       10.         
 UI BOUND     x_8       10.         
 UI BOUND     x_9       10.         
 UI BOUND     x_10      10.         
 UI BOUND     x_11      10.         
 UI BOUND     x_12      10.         
 UI BOUND     x_13      10.         
 UI BOUND     x_14      10.         
 UI BOUND     x_15      10.         
 UI BOUND     x_16      10.         
 UI BOUND     x_17      10.         
 UI BOUND     x_18      10.         
 UI BOUND     x_19      10.         
 UI BOUND     x_20      10.         
 UI BOUND     x_21      10.         
 UI BOUND     x_22      10.         
 UI BOUND     x_23      10.         
 UI BOUND     x_24      10.         
 UI BOUND     x_25      10.         
 UI BOUND     x_26      10.         
 UI BOUND     x_27      10.         
 UI BOUND     x_28      10.         
 UI BOUND     x_29      10.         
 UI BOUND     x_30      10.         
 UI BOUND     x_31      10.         
ENDATA
